<number of tasks>
70

<cycle time>
220

<task times>
1 17
2 66
3 54
4 52
5 6
6 88
7 21
8 128
9 68
10 70
11 85
12 21
13 134
14 135
15 94
16 90
17 50
18 143
19 19
20 54
21 50
22 40
23 73
24 12
25 152
26 42
27 45
28 74
29 26
30 11
31 31
32 50
33 102
34 46
35 35
36 40
37 2
38 1
39 3
40 13
41 16
42 25
43 21
44 43
45 30
46 83
47 89
48 56
49 59
50 43
51 11
52 26
53 44
54 121
55 38
56 68
57 22
58 7
59 16
60 32
61 25
62 27
63 156
64 28
65 15
66 26
67 18
68 72
69 23
70 27

<precedence relations>
1,2
1,41
1,69
1,70
2,3
3,4
3,68
4,6
4,7
5,6
5,24
5,30
6,8
7,8
8,12
9,10
10,11
11,12
12,13
12,14
13,23
14,23
15,16
16,17
16,18
17,19
18,19
19,20
19,22
19,57
20,21
21,23
22,23
23,25
23,31
23,33
24,25
25,26
25,27
25,28
25,29
26,35
27,35
28,35
29,35
30,31
31,32
32,35
33,34
34,35
35,36
35,44
35,48
35,51
35,53
35,56
35,60
35,61
35,62
36,37
37,38
38,39
39,40
40,42
41,42
42,43
43,50
44,45
45,46
46,47
47,50
48,49
49,50
51,52
52,54
53,54
54,55
57,58
58,59
59,60
61,65
62,63
63,64
64,65
64,66
64,67

<setup times forward>
1,9:4
1,10:1
1,11:1
1,15:4
1,16:2
1,17:1
1,18:3
1,19:3
1,20:3
1,21:1
1,22:5
1,24:4
1,30:2
1,41:4
1,57:1
1,58:1
1,59:5
1,69:2
1,70:4
2,9:4
2,10:1
2,11:1
2,15:4
2,16:2
2,17:1
2,18:3
2,19:3
2,20:3
2,21:1
2,22:5
2,24:4
2,30:2
2,41:4
2,57:1
2,58:1
2,59:5
2,69:2
2,70:4
3,9:4
3,10:1
3,11:1
3,15:4
3,16:2
3,17:1
3,18:3
3,19:3
3,20:3
3,21:1
3,22:5
3,24:4
3,30:2
3,41:4
3,57:1
3,58:1
3,59:5
3,68:7
3,69:2
3,70:4
4,6:2
4,9:4
4,10:1
4,11:1
4,15:4
4,16:2
4,17:1
4,18:3
4,19:3
4,20:3
4,21:1
4,22:5
4,24:4
4,30:2
4,41:4
4,57:1
4,58:1
4,59:5
4,68:7
4,69:2
4,70:4
5,6:2
5,9:4
5,10:1
5,11:1
5,15:4
5,16:2
5,17:1
5,18:3
5,19:3
5,20:3
5,21:1
5,22:5
5,24:4
5,30:2
5,41:4
5,57:1
5,58:1
5,59:5
5,68:7
5,69:2
5,70:4
6,7:2
6,8:3
6,9:6
6,10:3
6,11:3
6,15:6
6,17:3
6,18:1
6,19:1
6,20:1
6,21:1
6,22:3
6,24:6
6,41:6
6,57:1
6,58:1
6,59:3
6,68:5
6,70:6
7,6:2
7,8:1
7,9:4
7,10:1
7,11:1
7,15:4
7,16:2
7,17:1
7,18:3
7,19:3
7,20:3
7,21:1
7,22:5
7,24:4
7,30:2
7,41:4
7,57:1
7,58:1
7,59:5
7,68:7
7,69:2
7,70:4
8,9:3
8,15:3
8,16:3
8,18:4
8,19:4
8,20:4
8,21:2
8,22:6
8,24:3
8,30:3
8,41:3
8,57:2
8,58:2
8,59:6
8,68:8
8,69:3
8,70:3
9,1:4
9,2:4
9,3:4
9,4:4
9,5:4
9,6:6
9,7:4
9,8:3
9,10:3
9,16:6
9,17:3
9,18:7
9,19:7
9,20:7
9,21:5
9,22:9
9,30:6
9,57:5
9,58:5
9,59:9
9,68:11
9,69:6
10,1:1
10,2:1
10,3:1
10,4:1
10,5:1
10,6:3
10,7:1
10,15:3
10,16:3
10,18:4
10,19:4
10,20:4
10,21:2
10,22:6
10,24:3
10,30:3
10,41:3
10,57:2
10,58:2
10,59:6
10,68:8
10,69:3
10,70:3
11,1:1
11,2:1
11,3:1
11,4:1
11,5:1
11,6:3
11,7:1
11,15:3
11,16:3
11,18:4
11,19:4
11,20:4
11,21:2
11,22:6
11,24:3
11,30:3
11,41:3
11,57:2
11,58:2
11,59:6
11,68:8
11,69:3
11,70:3
12,13:6
12,14:2
12,15:3
12,16:3
12,18:4
12,19:4
12,20:4
12,21:2
12,22:6
12,24:3
12,30:3
12,41:3
12,57:2
12,58:2
12,59:6
12,68:8
12,69:3
12,70:3
13,14:4
13,15:9
13,16:3
13,17:6
13,18:2
13,19:2
13,20:2
13,21:4
13,23:7
13,24:9
13,30:3
13,41:9
13,57:4
13,58:4
13,68:2
13,69:3
13,70:9
14,13:4
14,15:5
14,16:1
14,17:2
14,18:2
14,19:2
14,20:2
14,22:4
14,23:3
14,24:5
14,30:1
14,41:5
14,59:4
14,68:6
14,69:1
14,70:5
15,1:4
15,2:4
15,3:4
15,4:4
15,5:4
15,6:6
15,7:4
15,8:3
15,10:3
15,11:3
15,12:3
15,13:9
15,14:5
15,16:6
15,30:6
15,68:11
15,69:6
16,1:2
16,2:2
16,3:2
16,4:2
16,5:2
16,7:2
16,8:3
16,9:6
16,10:3
16,11:3
16,12:3
16,13:3
16,14:1
16,17:3
16,18:1
16,24:6
16,41:6
16,68:5
16,70:6
17,1:1
17,2:1
17,3:1
17,4:1
17,5:1
17,6:3
17,7:1
17,9:3
17,13:6
17,14:2
17,18:4
17,19:4
17,24:3
17,30:3
17,41:3
17,68:8
17,69:3
17,70:3
18,1:3
18,2:3
18,3:3
18,4:3
18,5:3
18,6:1
18,7:3
18,8:4
18,9:7
18,10:4
18,11:4
18,12:4
18,13:2
18,14:2
18,17:4
18,24:7
18,30:1
18,41:7
18,68:4
18,69:1
18,70:7
19,1:3
19,2:3
19,3:3
19,4:3
19,5:3
19,6:1
19,7:3
19,8:4
19,9:7
19,10:4
19,11:4
19,12:4
19,13:2
19,14:2
19,22:2
19,24:7
19,30:1
19,41:7
19,57:2
19,68:4
19,69:1
19,70:7
20,1:3
20,2:3
20,3:3
20,4:3
20,5:3
20,6:1
20,7:3
20,8:4
20,9:7
20,10:4
20,11:4
20,12:4
20,13:2
20,14:2
20,21:2
20,22:2
20,24:7
20,30:1
20,41:7
20,57:2
20,58:2
20,59:2
20,68:4
20,69:1
20,70:7
21,1:1
21,2:1
21,3:1
21,4:1
21,5:1
21,6:1
21,7:1
21,8:2
21,9:5
21,10:2
21,11:2
21,12:2
21,13:4
21,22:4
21,23:3
21,24:5
21,30:1
21,41:5
21,59:4
21,68:6
21,69:1
21,70:5
22,1:5
22,2:5
22,3:5
22,4:5
22,5:5
22,6:3
22,7:5
22,8:6
22,9:9
22,10:6
22,11:6
22,12:6
22,14:4
22,20:2
22,21:4
22,23:7
22,24:9
22,30:3
22,41:9
22,57:4
22,58:4
22,68:2
22,69:3
22,70:9
23,24:2
23,25:4
23,30:4
23,41:2
23,57:3
23,58:3
23,59:7
23,68:9
23,69:4
23,70:2
24,1:4
24,2:4
24,3:4
24,4:4
24,6:6
24,7:4
24,8:3
24,10:3
24,11:3
24,12:3
24,13:9
24,14:5
24,16:6
24,17:3
24,18:7
24,19:7
24,20:7
24,21:5
24,22:9
24,23:2
24,25:6
24,30:6
24,31:2
24,32:6
24,33:2
24,34:10
24,57:5
24,58:5
24,59:9
24,68:11
24,69:6
25,26:4
25,27:4
25,28:4
25,29:1
25,31:4
25,33:4
25,34:4
25,41:6
25,57:1
25,58:1
25,59:3
25,68:5
25,70:6
26,29:5
26,30:4
26,31:8
26,32:4
26,33:8
26,35:5
26,41:10
26,57:5
26,58:5
26,59:1
26,68:1
26,69:4
26,70:10
27,29:5
27,30:4
27,31:8
27,32:4
27,33:8
27,35:5
27,41:10
27,57:5
27,58:5
27,59:1
27,68:1
27,69:4
27,70:10
28,29:5
28,30:4
28,31:8
28,32:4
28,33:8
28,35:5
28,41:10
28,57:5
28,58:5
28,59:1
28,68:1
28,69:4
28,70:10
29,26:5
29,27:5
29,28:5
29,30:1
29,31:3
29,32:1
29,33:3
29,34:5
29,41:5
29,59:4
29,68:6
29,69:1
29,70:5
30,1:2
30,2:2
30,3:2
30,4:2
30,7:2
30,8:3
30,9:6
30,10:3
30,11:3
30,12:3
30,13:3
30,14:1
30,15:6
30,17:3
30,18:1
30,19:1
30,20:1
30,21:1
30,22:3
30,23:4
30,24:6
30,26:4
30,27:4
30,28:4
30,29:1
30,31:4
30,33:4
30,34:4
30,41:6
30,57:1
30,58:1
30,59:3
30,68:5
30,70:6
31,24:2
31,25:4
31,26:8
31,27:8
31,28:8
31,29:3
31,32:4
31,34:8
31,41:2
31,57:3
31,58:3
31,59:7
31,68:9
31,69:4
31,70:2
32,24:6
32,26:4
32,27:4
32,28:4
32,29:1
32,33:4
32,34:4
32,35:1
32,41:6
32,57:1
32,58:1
32,59:3
32,68:5
32,70:6
33,24:2
33,25:4
33,26:8
33,27:8
33,28:8
33,29:3
33,30:4
33,32:4
33,34:8
33,41:2
33,57:3
33,58:3
33,59:7
33,68:9
33,69:4
33,70:2
34,24:10
34,25:4
34,29:5
34,30:4
34,31:8
34,32:4
34,35:5
34,41:10
34,57:5
34,58:5
34,59:1
34,68:1
34,69:4
34,70:10
35,36:4
35,41:5
35,48:4
35,56:5
35,59:4
35,60:5
35,61:5
35,68:6
35,69:1
35,70:5
36,41:1
36,44:4
36,45:4
36,46:10
36,47:1
36,49:10
36,51:4
36,52:2
36,53:4
36,55:1
36,56:9
36,57:4
36,58:4
36,59:8
36,60:9
36,61:9
36,62:4
36,63:2
36,64:2
36,65:9
36,66:9
36,67:9
36,68:10
36,69:5
36,70:1
37,41:1
37,44:4
37,45:4
37,46:10
37,47:1
37,49:10
37,51:4
37,52:2
37,53:4
37,55:1
37,56:9
37,57:4
37,58:4
37,59:8
37,60:9
37,61:9
37,62:4
37,63:2
37,64:2
37,65:9
37,66:9
37,67:9
37,68:10
37,69:5
37,70:1
38,39:10
38,41:1
38,44:4
38,45:4
38,46:10
38,47:1
38,49:10
38,51:4
38,52:2
38,53:4
38,55:1
38,56:9
38,57:4
38,58:4
38,59:8
38,60:9
38,61:9
38,62:4
38,63:2
38,64:2
38,65:9
38,66:9
38,67:9
38,68:10
38,69:5
38,70:1
39,40:1
39,41:11
39,44:6
39,45:6
39,47:11
39,48:10
39,51:6
39,52:8
39,53:6
39,54:10
39,55:11
39,56:1
39,57:6
39,58:6
39,59:2
39,60:1
39,61:1
39,62:6
39,63:8
39,64:8
39,65:1
39,66:1
39,67:1
39,69:5
39,70:11
40,41:10
40,42:10
40,44:5
40,45:5
40,46:1
40,47:10
40,48:9
40,49:1
40,51:5
40,52:7
40,53:5
40,54:9
40,55:10
40,57:5
40,58:5
40,59:1
40,62:5
40,63:7
40,64:7
40,68:1
40,69:4
40,70:10
41,2:4
41,3:4
41,4:4
41,5:4
41,6:6
41,7:4
41,8:3
41,10:3
41,11:3
41,12:3
41,13:9
41,14:5
41,16:6
41,17:3
41,18:7
41,19:7
41,20:7
41,21:5
41,22:9
41,23:2
41,25:6
41,26:10
41,27:10
41,28:10
41,29:5
41,30:6
41,31:2
41,32:6
41,33:2
41,34:10
41,35:5
41,36:1
41,37:1
41,38:1
41,39:11
41,40:10
41,44:5
41,45:5
41,46:11
41,48:1
41,49:11
41,51:5
41,52:3
41,53:5
41,54:1
41,56:10
41,57:5
41,58:5
41,59:9
41,60:10
41,61:10
41,62:5
41,63:3
41,64:3
41,65:10
41,66:10
41,67:10
41,68:11
41,69:6
42,44:5
42,45:5
42,46:11
42,48:1
42,49:11
42,51:5
42,52:3
42,53:5
42,54:1
42,56:10
42,57:5
42,58:5
42,59:9
42,60:10
42,61:10
42,62:5
42,63:3
42,64:3
42,65:10
42,66:10
42,67:10
42,68:11
42,69:6
43,44:5
43,45:5
43,46:11
43,48:1
43,49:11
43,51:5
43,52:3
43,53:5
43,54:1
43,56:10
43,57:5
43,58:5
43,59:9
43,60:10
43,61:10
43,62:5
43,63:3
43,64:3
43,65:10
43,66:10
43,67:10
43,68:11
43,69:6
44,36:4
44,37:4
44,38:4
44,39:6
44,40:5
44,41:5
44,42:5
44,43:5
44,48:4
44,49:6
44,52:2
44,54:4
44,55:5
44,56:5
44,59:4
44,60:5
44,61:5
44,63:2
44,64:2
44,65:5
44,66:5
44,67:5
44,68:6
44,69:1
44,70:5
45,36:4
45,37:4
45,38:4
45,39:6
45,40:5
45,41:5
45,42:5
45,43:5
45,46:6
45,48:4
45,49:6
45,52:2
45,54:4
45,55:5
45,56:5
45,59:4
45,60:5
45,61:5
45,63:2
45,64:2
45,65:5
45,66:5
45,67:5
45,68:6
45,69:1
45,70:5
46,36:10
46,37:10
46,38:10
46,40:1
46,41:11
46,42:11
46,43:11
46,47:11
46,48:10
46,51:6
46,52:8
46,53:6
46,54:10
46,55:11
46,56:1
46,57:6
46,58:6
46,59:2
46,60:1
46,61:1
46,62:6
46,63:8
46,64:8
46,65:1
46,66:1
46,67:1
46,69:5
46,70:11
47,36:1
47,37:1
47,38:1
47,39:11
47,40:10
47,48:1
47,49:11
47,51:5
47,52:3
47,53:5
47,54:1
47,56:10
47,57:5
47,58:5
47,59:9
47,60:10
47,61:10
47,62:5
47,63:3
47,64:3
47,65:10
47,66:10
47,67:10
47,68:11
47,69:6
48,39:10
48,40:9
48,41:1
48,42:1
48,43:1
48,44:4
48,45:4
48,46:10
48,47:1
48,49:10
48,51:4
48,52:2
48,53:4
48,55:1
48,56:9
48,57:4
48,58:4
48,59:8
48,60:9
48,61:9
48,62:4
48,63:2
48,64:2
48,65:9
48,66:9
48,67:9
48,68:10
48,69:5
48,70:1
49,36:10
49,37:10
49,38:10
49,40:1
49,41:11
49,42:11
49,43:11
49,44:6
49,45:6
49,47:11
49,50:11
49,51:6
49,52:8
49,53:6
49,54:10
49,55:11
49,56:1
49,57:6
49,58:6
49,59:2
49,60:1
49,61:1
49,62:6
49,63:8
49,64:8
49,65:1
49,66:1
49,67:1
49,69:5
49,70:11
50,51:5
50,52:3
50,53:5
50,54:1
50,56:10
50,57:5
50,58:5
50,59:9
50,60:10
50,61:10
50,62:5
50,63:3
50,64:3
50,65:10
50,66:10
50,67:10
50,68:11
50,69:6
51,36:4
51,37:4
51,38:4
51,39:6
51,40:5
51,41:5
51,42:5
51,43:5
51,46:6
51,47:5
51,48:4
51,49:6
51,50:5
51,52:2
51,56:5
51,59:4
51,60:5
51,61:5
51,63:2
51,64:2
51,65:5
51,66:5
51,67:5
51,68:6
51,69:1
51,70:5
52,36:2
52,37:2
52,38:2
52,39:8
52,40:7
52,41:3
52,42:3
52,43:3
52,44:2
52,45:2
52,46:8
52,47:3
52,48:2
52,49:8
52,50:3
52,53:2
52,54:2
52,56:7
52,57:2
52,58:2
52,59:6
52,60:7
52,61:7
52,62:2
52,65:7
52,66:7
52,67:7
52,68:8
52,69:3
52,70:3
53,36:4
53,37:4
53,38:4
53,39:6
53,40:5
53,41:5
53,42:5
53,43:5
53,46:6
53,47:5
53,48:4
53,49:6
53,50:5
53,52:2
53,54:4
53,56:5
53,59:4
53,60:5
53,61:5
53,63:2
53,64:2
53,65:5
53,66:5
53,67:5
53,68:6
53,69:1
53,70:5
54,39:10
54,40:9
54,41:1
54,42:1
54,43:1
54,44:4
54,45:4
54,46:10
54,47:1
54,49:10
54,50:1
54,55:1
54,56:9
54,57:4
54,58:4
54,59:8
54,60:9
54,61:9
54,62:4
54,63:2
54,64:2
54,65:9
54,66:9
54,67:9
54,68:10
54,69:5
54,70:1
55,36:1
55,37:1
55,38:1
55,39:11
55,40:10
55,44:5
55,45:5
55,46:11
55,48:1
55,49:11
55,56:10
55,57:5
55,58:5
55,59:9
55,60:10
55,61:10
55,62:5
55,63:3
55,64:3
55,65:10
55,66:10
55,67:10
55,68:11
55,69:6
56,36:9
56,37:9
56,38:9
56,39:1
56,41:10
56,42:10
56,43:10
56,44:5
56,45:5
56,46:1
56,47:10
56,48:9
56,49:1
56,50:10
56,51:5
56,52:7
56,53:5
56,54:9
56,55:10
56,57:5
56,58:5
56,59:1
56,62:5
56,63:7
56,64:7
56,68:1
56,69:4
56,70:10
57,1:1
57,2:1
57,3:1
57,4:1
57,5:1
57,6:1
57,7:1
57,8:2
57,9:5
57,10:2
57,11:2
57,12:2
57,13:4
57,20:2
57,22:4
57,23:3
57,24:5
57,25:1
57,26:5
57,27:5
57,28:5
57,30:1
57,31:3
57,32:1
57,33:3
57,34:5
57,36:4
57,37:4
57,38:4
57,39:6
57,40:5
57,41:5
57,42:5
57,43:5
57,46:6
57,47:5
57,48:4
57,49:6
57,50:5
57,52:2
57,54:4
57,55:5
57,56:5
57,61:5
57,63:2
57,64:2
57,65:5
57,66:5
57,67:5
57,68:6
57,69:1
57,70:5
58,1:1
58,2:1
58,3:1
58,4:1
58,5:1
58,6:1
58,7:1
58,8:2
58,9:5
58,10:2
58,11:2
58,12:2
58,13:4
58,20:2
58,22:4
58,23:3
58,24:5
58,25:1
58,26:5
58,27:5
58,28:5
58,30:1
58,31:3
58,32:1
58,33:3
58,34:5
58,36:4
58,37:4
58,38:4
58,39:6
58,40:5
58,41:5
58,42:5
58,43:5
58,46:6
58,47:5
58,48:4
58,49:6
58,50:5
58,52:2
58,54:4
58,55:5
58,56:5
58,59:4
58,61:5
58,63:2
58,64:2
58,65:5
58,66:5
58,67:5
58,68:6
58,69:1
58,70:5
59,1:5
59,2:5
59,3:5
59,4:5
59,5:5
59,6:3
59,7:5
59,8:6
59,9:9
59,10:6
59,11:6
59,12:6
59,14:4
59,20:2
59,21:4
59,23:7
59,24:9
59,25:3
59,26:1
59,27:1
59,28:1
59,29:4
59,30:3
59,31:7
59,32:3
59,33:7
59,34:1
59,35:4
59,36:8
59,37:8
59,38:8
59,39:2
59,40:1
59,41:9
59,42:9
59,43:9
59,44:4
59,45:4
59,46:2
59,47:9
59,48:8
59,49:2
59,50:9
59,51:4
59,52:6
59,53:4
59,54:8
59,55:9
59,56:1
59,60:1
59,61:1
59,62:4
59,63:6
59,64:6
59,65:1
59,66:1
59,67:1
59,68:2
59,69:3
59,70:9
60,36:9
60,37:9
60,38:9
60,39:1
60,41:10
60,42:10
60,43:10
60,44:5
60,45:5
60,46:1
60,47:10
60,48:9
60,49:1
60,50:10
60,51:5
60,52:7
60,53:5
60,54:9
60,55:10
60,62:5
60,63:7
60,64:7
60,68:1
60,69:4
60,70:10
61,36:9
61,37:9
61,38:9
61,39:1
61,41:10
61,42:10
61,43:10
61,44:5
61,45:5
61,46:1
61,47:10
61,48:9
61,49:1
61,50:10
61,51:5
61,52:7
61,53:5
61,54:9
61,55:10
61,57:5
61,58:5
61,59:1
61,62:5
61,63:7
61,64:7
61,68:1
61,69:4
61,70:10
62,36:4
62,37:4
62,38:4
62,39:6
62,40:5
62,41:5
62,42:5
62,43:5
62,46:6
62,47:5
62,48:4
62,49:6
62,50:5
62,52:2
62,54:4
62,55:5
62,56:5
62,59:4
62,60:5
62,61:5
62,63:2
62,68:6
62,69:1
62,70:5
63,36:2
63,37:2
63,38:2
63,39:8
63,40:7
63,41:3
63,42:3
63,43:3
63,44:2
63,45:2
63,46:8
63,47:3
63,48:2
63,49:8
63,50:3
63,51:2
63,53:2
63,54:2
63,55:3
63,56:7
63,57:2
63,58:2
63,59:6
63,60:7
63,61:7
63,68:8
63,69:3
63,70:3
64,36:2
64,37:2
64,38:2
64,39:8
64,40:7
64,41:3
64,42:3
64,43:3
64,44:2
64,45:2
64,46:8
64,47:3
64,48:2
64,49:8
64,50:3
64,51:2
64,53:2
64,54:2
64,55:3
64,56:7
64,57:2
64,58:2
64,59:6
64,60:7
64,61:7
64,65:7
64,66:7
64,67:7
64,68:8
64,69:3
64,70:3
65,36:9
65,37:9
65,38:9
65,39:1
65,41:10
65,42:10
65,43:10
65,44:5
65,45:5
65,46:1
65,47:10
65,48:9
65,49:1
65,50:10
65,51:5
65,52:7
65,53:5
65,54:9
65,55:10
65,57:5
65,58:5
65,59:1
65,68:1
65,69:4
65,70:10
66,36:9
66,37:9
66,38:9
66,39:1
66,41:10
66,42:10
66,43:10
66,44:5
66,45:5
66,46:1
66,47:10
66,48:9
66,49:1
66,50:10
66,51:5
66,52:7
66,53:5
66,54:9
66,55:10
66,57:5
66,58:5
66,59:1
66,68:1
66,69:4
66,70:10
67,36:9
67,37:9
67,38:9
67,39:1
67,41:10
67,42:10
67,43:10
67,44:5
67,45:5
67,46:1
67,47:10
67,48:9
67,49:1
67,50:10
67,51:5
67,52:7
67,53:5
67,54:9
67,55:10
67,57:5
67,58:5
67,59:1
67,68:1
67,69:4
67,70:10
68,4:7
68,5:7
68,6:5
68,7:7
68,8:8
68,9:11
68,10:8
68,11:8
68,12:8
68,13:2
68,14:6
68,15:11
68,16:5
68,17:8
68,18:4
68,19:4
68,20:4
68,21:6
68,22:2
68,23:9
68,24:11
68,25:5
68,26:1
68,27:1
68,28:1
68,29:6
68,30:5
68,31:9
68,32:5
68,33:9
68,34:1
68,35:6
68,36:10
68,37:10
68,38:10
68,40:1
68,41:11
68,42:11
68,43:11
68,44:6
68,45:6
68,47:11
68,48:10
68,50:11
68,51:6
68,52:8
68,53:6
68,54:10
68,55:11
68,56:1
68,57:6
68,58:6
68,59:2
68,60:1
68,61:1
68,62:6
68,63:8
68,64:8
68,65:1
68,66:1
68,67:1
68,69:5
68,70:11
69,2:2
69,3:2
69,4:2
69,5:2
69,7:2
69,8:3
69,9:6
69,10:3
69,11:3
69,12:3
69,13:3
69,14:1
69,15:6
69,17:3
69,18:1
69,19:1
69,20:1
69,21:1
69,22:3
69,23:4
69,24:6
69,26:4
69,27:4
69,28:4
69,29:1
69,31:4
69,33:4
69,34:4
69,35:1
69,36:5
69,37:5
69,38:5
69,39:5
69,40:4
69,41:6
69,42:6
69,43:6
69,44:1
69,45:1
69,46:5
69,47:6
69,48:5
69,49:5
69,50:6
69,51:1
69,52:3
69,53:1
69,54:5
69,55:6
69,56:4
69,57:1
69,58:1
69,59:3
69,60:4
69,61:4
69,62:1
69,63:3
69,64:3
69,65:4
69,66:4
69,67:4
69,68:5
69,70:6
70,2:4
70,3:4
70,4:4
70,5:4
70,6:6
70,7:4
70,8:3
70,10:3
70,11:3
70,12:3
70,13:9
70,14:5
70,16:6
70,17:3
70,18:7
70,19:7
70,20:7
70,21:5
70,22:9
70,23:2
70,25:6
70,26:10
70,27:10
70,28:10
70,29:5
70,30:6
70,31:2
70,32:6
70,33:2
70,34:10
70,35:5
70,36:1
70,37:1
70,38:1
70,39:11
70,40:10
70,44:5
70,45:5
70,46:11
70,48:1
70,49:11
70,51:5
70,52:3
70,53:5
70,54:1
70,56:10
70,57:5
70,58:5
70,59:9
70,60:10
70,61:10
70,62:5
70,63:3
70,64:3
70,65:10
70,66:10
70,67:10
70,68:11
70,69:6

<setup times backward>
1,16:2
1,18:3
1,19:3
1,20:3
1,21:1
1,22:5
1,30:2
1,57:1
1,58:1
1,59:5
2,16:2
2,18:3
2,19:3
2,20:3
2,21:1
2,22:5
2,30:2
2,57:1
2,58:1
2,59:5
2,69:2
3,16:2
3,18:3
3,19:3
3,20:3
3,21:1
3,22:5
3,30:2
3,57:1
3,58:1
3,59:5
3,69:2
4,16:2
4,18:3
4,19:3
4,20:3
4,21:1
4,22:5
4,30:2
4,57:1
4,58:1
4,59:5
4,68:7
4,69:2
5,16:2
5,18:3
5,19:3
5,20:3
5,21:1
5,22:5
5,57:1
5,58:1
5,59:5
5,68:7
5,69:2
6,18:1
6,19:1
6,20:1
6,22:3
6,59:3
6,68:5
7,6:2
7,16:2
7,18:3
7,19:3
7,20:3
7,21:1
7,22:5
7,30:2
7,57:1
7,58:1
7,59:5
7,68:7
7,69:2
8,1:1
8,2:1
8,3:1
8,4:1
8,5:1
8,6:3
8,7:1
8,16:3
8,18:4
8,19:4
8,20:4
8,21:2
8,22:6
8,30:3
8,57:2
8,58:2
8,59:6
8,68:8
8,69:3
9,1:4
9,2:4
9,3:4
9,4:4
9,5:4
9,6:6
9,7:4
9,8:3
9,16:6
9,17:3
9,18:7
9,19:7
9,20:7
9,21:5
9,22:9
9,30:6
9,57:5
9,58:5
9,59:9
9,68:11
9,69:6
10,1:1
10,2:1
10,3:1
10,4:1
10,5:1
10,6:3
10,7:1
10,16:3
10,18:4
10,19:4
10,20:4
10,21:2
10,22:6
10,30:3
10,57:2
10,58:2
10,59:6
10,68:8
10,69:3
11,1:1
11,2:1
11,3:1
11,4:1
11,5:1
11,6:3
11,7:1
11,16:3
11,18:4
11,19:4
11,20:4
11,21:2
11,22:6
11,30:3
11,57:2
11,58:2
11,59:6
11,68:8
11,69:3
12,1:1
12,2:1
12,3:1
12,4:1
12,5:1
12,6:3
12,7:1
12,16:3
12,18:4
12,19:4
12,20:4
12,21:2
12,22:6
12,30:3
12,57:2
12,58:2
12,59:6
12,68:8
12,69:3
13,68:2
14,6:1
14,13:4
14,16:1
14,18:2
14,19:2
14,20:2
14,22:4
14,30:1
14,59:4
14,68:6
14,69:1
15,1:4
15,2:4
15,3:4
15,4:4
15,5:4
15,6:6
15,7:4
15,8:3
15,10:3
15,11:3
15,12:3
15,13:9
15,14:5
15,30:6
15,68:11
15,69:6
16,13:3
16,68:5
17,1:1
17,2:1
17,3:1
17,4:1
17,5:1
17,6:3
17,7:1
17,13:6
17,14:2
17,16:3
17,18:4
17,30:3
17,68:8
17,69:3
18,13:2
18,68:4
19,13:2
19,68:4
20,13:2
20,22:2
20,59:2
20,68:4
21,6:1
21,13:4
21,16:1
21,18:2
21,19:2
21,20:2
21,22:4
21,30:1
21,59:4
21,68:6
21,69:1
22,68:2
23,1:2
23,2:2
23,3:2
23,4:2
23,5:2
23,6:4
23,7:2
23,8:1
23,10:1
23,11:1
23,12:1
23,13:7
23,14:3
23,16:4
23,17:1
23,18:5
23,19:5
23,20:5
23,21:3
23,22:7
23,30:4
23,57:3
23,58:3
23,59:7
23,68:9
23,69:4
24,1:4
24,2:4
24,3:4
24,4:4
24,5:4
24,6:6
24,7:4
24,8:3
24,10:3
24,11:3
24,12:3
24,13:9
24,14:5
24,16:6
24,17:3
24,18:7
24,19:7
24,20:7
24,21:5
24,22:9
24,23:2
24,30:6
24,31:2
24,32:6
24,33:2
24,34:10
24,57:5
24,58:5
24,59:9
24,68:11
24,69:6
25,13:3
25,18:1
25,19:1
25,20:1
25,22:3
25,34:4
25,59:3
25,68:5
26,68:1
27,68:1
28,68:1
29,6:1
29,13:4
29,16:1
29,18:2
29,19:2
29,20:2
29,22:4
29,25:1
29,26:5
29,27:5
29,28:5
29,30:1
29,32:1
29,34:5
29,59:4
29,68:6
29,69:1
30,13:3
30,18:1
30,19:1
30,20:1
30,22:3
30,26:4
30,27:4
30,28:4
30,34:4
30,59:3
30,68:5
31,1:2
31,2:2
31,3:2
31,4:2
31,5:2
31,6:4
31,7:2
31,8:1
31,10:1
31,11:1
31,12:1
31,13:7
31,14:3
31,16:4
31,17:1
31,18:5
31,19:5
31,20:5
31,21:3
31,22:7
31,25:4
31,26:8
31,27:8
31,28:8
31,29:3
31,30:4
31,34:8
31,57:3
31,58:3
31,59:7
31,68:9
31,69:4
32,13:3
32,18:1
32,19:1
32,20:1
32,22:3
32,26:4
32,27:4
32,28:4
32,34:4
32,59:3
32,68:5
33,1:2
33,2:2
33,3:2
33,4:2
33,5:2
33,6:4
33,7:2
33,8:1
33,10:1
33,11:1
33,12:1
33,13:7
33,14:3
33,16:4
33,17:1
33,18:5
33,19:5
33,20:5
33,21:3
33,22:7
33,25:4
33,26:8
33,27:8
33,28:8
33,29:3
33,30:4
33,32:4
33,57:3
33,58:3
33,59:7
33,68:9
33,69:4
34,68:1
35,6:1
35,13:4
35,16:1
35,18:2
35,19:2
35,20:2
35,22:4
35,25:1
35,26:5
35,27:5
35,28:5
35,30:1
35,32:1
35,34:5
35,59:4
35,68:6
35,69:1
36,1:3
36,2:3
36,3:3
36,4:3
36,5:3
36,6:5
36,7:3
36,8:2
36,10:2
36,11:2
36,12:2
36,13:8
36,14:4
36,16:5
36,17:2
36,18:6
36,19:6
36,20:6
36,21:4
36,22:8
36,23:1
36,25:5
36,26:9
36,27:9
36,28:9
36,29:4
36,30:5
36,31:1
36,32:5
36,33:1
36,34:9
36,35:4
36,44:4
36,45:4
36,46:10
36,49:10
36,51:4
36,52:2
36,53:4
36,56:9
36,57:4
36,58:4
36,59:8
36,60:9
36,61:9
36,62:4
36,63:2
36,64:2
36,65:9
36,66:9
36,67:9
36,68:10
36,69:5
37,1:3
37,2:3
37,3:3
37,4:3
37,5:3
37,6:5
37,7:3
37,8:2
37,10:2
37,11:2
37,12:2
37,13:8
37,14:4
37,16:5
37,17:2
37,18:6
37,19:6
37,20:6
37,21:4
37,22:8
37,23:1
37,25:5
37,26:9
37,27:9
37,28:9
37,29:4
37,30:5
37,31:1
37,32:5
37,33:1
37,34:9
37,35:4
37,44:4
37,45:4
37,46:10
37,49:10
37,51:4
37,52:2
37,53:4
37,56:9
37,57:4
37,58:4
37,59:8
37,60:9
37,61:9
37,62:4
37,63:2
37,64:2
37,65:9
37,66:9
37,67:9
37,68:10
37,69:5
38,1:3
38,2:3
38,3:3
38,4:3
38,5:3
38,6:5
38,7:3
38,8:2
38,10:2
38,11:2
38,12:2
38,13:8
38,14:4
38,16:5
38,17:2
38,18:6
38,19:6
38,20:6
38,21:4
38,22:8
38,23:1
38,25:5
38,26:9
38,27:9
38,28:9
38,29:4
38,30:5
38,31:1
38,32:5
38,33:1
38,34:9
38,35:4
38,44:4
38,45:4
38,46:10
38,49:10
38,51:4
38,52:2
38,53:4
38,56:9
38,57:4
38,58:4
38,59:8
38,60:9
38,61:9
38,62:4
38,63:2
38,64:2
38,65:9
38,66:9
38,67:9
38,68:10
38,69:5
40,39:1
40,46:1
40,49:1
40,68:1
41,1:4
41,2:4
41,3:4
41,4:4
41,5:4
41,6:6
41,7:4
41,8:3
41,10:3
41,11:3
41,12:3
41,13:9
41,14:5
41,16:6
41,17:3
41,18:7
41,19:7
41,20:7
41,21:5
41,22:9
41,23:2
41,25:6
41,26:10
41,27:10
41,28:10
41,29:5
41,30:6
41,31:2
41,32:6
41,33:2
41,34:10
41,35:5
41,36:1
41,37:1
41,38:1
41,39:11
41,40:10
41,44:5
41,45:5
41,46:11
41,48:1
41,49:11
41,51:5
41,52:3
41,53:5
41,54:1
41,56:10
41,57:5
41,58:5
41,59:9
41,60:10
41,61:10
41,62:5
41,63:3
41,64:3
41,65:10
41,66:10
41,67:10
41,68:11
41,69:6
42,1:4
42,2:4
42,3:4
42,4:4
42,5:4
42,6:6
42,7:4
42,8:3
42,10:3
42,11:3
42,12:3
42,13:9
42,14:5
42,16:6
42,17:3
42,18:7
42,19:7
42,20:7
42,21:5
42,22:9
42,23:2
42,25:6
42,26:10
42,27:10
42,28:10
42,29:5
42,30:6
42,31:2
42,32:6
42,33:2
42,34:10
42,35:5
42,36:1
42,37:1
42,38:1
42,39:11
42,40:10
42,44:5
42,45:5
42,46:11
42,48:1
42,49:11
42,51:5
42,52:3
42,53:5
42,54:1
42,56:10
42,57:5
42,58:5
42,59:9
42,60:10
42,61:10
42,62:5
42,63:3
42,64:3
42,65:10
42,66:10
42,67:10
42,68:11
42,69:6
43,1:4
43,2:4
43,3:4
43,4:4
43,5:4
43,6:6
43,7:4
43,8:3
43,10:3
43,11:3
43,12:3
43,13:9
43,14:5
43,16:6
43,17:3
43,18:7
43,19:7
43,20:7
43,21:5
43,22:9
43,23:2
43,25:6
43,26:10
43,27:10
43,28:10
43,29:5
43,30:6
43,31:2
43,32:6
43,33:2
43,34:10
43,35:5
43,36:1
43,37:1
43,38:1
43,39:11
43,40:10
43,44:5
43,45:5
43,46:11
43,48:1
43,49:11
43,51:5
43,52:3
43,53:5
43,54:1
43,56:10
43,57:5
43,58:5
43,59:9
43,60:10
43,61:10
43,62:5
43,63:3
43,64:3
43,65:10
43,66:10
43,67:10
43,68:11
43,69:6
44,6:1
44,13:4
44,16:1
44,18:2
44,19:2
44,20:2
44,22:4
44,25:1
44,26:5
44,27:5
44,28:5
44,30:1
44,32:1
44,34:5
44,39:6
44,40:5
44,49:6
44,56:5
44,59:4
44,60:5
44,61:5
44,65:5
44,66:5
44,67:5
44,68:6
44,69:1
45,6:1
45,13:4
45,16:1
45,18:2
45,19:2
45,20:2
45,22:4
45,25:1
45,26:5
45,27:5
45,28:5
45,30:1
45,32:1
45,34:5
45,39:6
45,40:5
45,49:6
45,56:5
45,59:4
45,60:5
45,61:5
45,65:5
45,66:5
45,67:5
45,68:6
45,69:1
47,1:4
47,2:4
47,3:4
47,4:4
47,5:4
47,6:6
47,7:4
47,8:3
47,10:3
47,11:3
47,12:3
47,13:9
47,14:5
47,16:6
47,17:3
47,18:7
47,19:7
47,20:7
47,21:5
47,22:9
47,23:2
47,25:6
47,26:10
47,27:10
47,28:10
47,29:5
47,30:6
47,31:2
47,32:6
47,33:2
47,34:10
47,35:5
47,36:1
47,37:1
47,38:1
47,39:11
47,40:10
47,44:5
47,45:5
47,46:11
47,48:1
47,49:11
47,51:5
47,52:3
47,53:5
47,54:1
47,56:10
47,57:5
47,58:5
47,59:9
47,60:10
47,61:10
47,62:5
47,63:3
47,64:3
47,65:10
47,66:10
47,67:10
47,68:11
47,69:6
48,1:3
48,2:3
48,3:3
48,4:3
48,5:3
48,6:5
48,7:3
48,8:2
48,10:2
48,11:2
48,12:2
48,13:8
48,14:4
48,16:5
48,17:2
48,18:6
48,19:6
48,20:6
48,21:4
48,22:8
48,23:1
48,25:5
48,26:9
48,27:9
48,28:9
48,29:4
48,30:5
48,31:1
48,32:5
48,33:1
48,34:9
48,35:4
48,39:10
48,40:9
48,44:4
48,45:4
48,46:10
48,51:4
48,52:2
48,53:4
48,56:9
48,57:4
48,58:4
48,59:8
48,60:9
48,61:9
48,62:4
48,63:2
48,64:2
48,65:9
48,66:9
48,67:9
48,68:10
48,69:5
50,1:4
50,2:4
50,3:4
50,4:4
50,5:4
50,6:6
50,7:4
50,8:3
50,10:3
50,11:3
50,12:3
50,13:9
50,14:5
50,16:6
50,17:3
50,18:7
50,19:7
50,20:7
50,21:5
50,22:9
50,23:2
50,25:6
50,26:10
50,27:10
50,28:10
50,29:5
50,30:6
50,31:2
50,32:6
50,33:2
50,34:10
50,35:5
50,36:1
50,37:1
50,38:1
50,39:11
50,40:10
50,44:5
50,45:5
50,46:11
50,48:1
50,49:11
50,51:5
50,52:3
50,53:5
50,54:1
50,56:10
50,57:5
50,58:5
50,59:9
50,60:10
50,61:10
50,62:5
50,63:3
50,64:3
50,65:10
50,66:10
50,67:10
50,68:11
50,69:6
51,6:1
51,13:4
51,16:1
51,18:2
51,19:2
51,20:2
51,22:4
51,25:1
51,26:5
51,27:5
51,28:5
51,30:1
51,32:1
51,34:5
51,39:6
51,40:5
51,46:6
51,49:6
51,56:5
51,59:4
51,60:5
51,61:5
51,65:5
51,66:5
51,67:5
51,68:6
51,69:1
52,1:1
52,2:1
52,3:1
52,4:1
52,5:1
52,6:3
52,7:1
52,13:6
52,14:2
52,16:3
52,18:4
52,19:4
52,20:4
52,21:2
52,22:6
52,25:3
52,26:7
52,27:7
52,28:7
52,29:2
52,30:3
52,32:3
52,34:7
52,35:2
52,39:8
52,40:7
52,44:2
52,45:2
52,46:8
52,49:8
52,51:2
52,53:2
52,56:7
52,57:2
52,58:2
52,59:6
52,60:7
52,61:7
52,62:2
52,65:7
52,66:7
52,67:7
52,68:8
52,69:3
53,6:1
53,13:4
53,16:1
53,18:2
53,19:2
53,20:2
53,22:4
53,25:1
53,26:5
53,27:5
53,28:5
53,30:1
53,32:1
53,34:5
53,39:6
53,40:5
53,46:6
53,49:6
53,56:5
53,59:4
53,60:5
53,61:5
53,65:5
53,66:5
53,67:5
53,68:6
53,69:1
54,1:3
54,2:3
54,3:3
54,4:3
54,5:3
54,6:5
54,7:3
54,8:2
54,10:2
54,11:2
54,12:2
54,13:8
54,14:4
54,16:5
54,17:2
54,18:6
54,19:6
54,20:6
54,21:4
54,22:8
54,23:1
54,25:5
54,26:9
54,27:9
54,28:9
54,29:4
54,30:5
54,31:1
54,32:5
54,33:1
54,34:9
54,35:4
54,39:10
54,40:9
54,44:4
54,45:4
54,46:10
54,49:10
54,51:4
54,52:2
54,53:4
54,56:9
54,57:4
54,58:4
54,59:8
54,60:9
54,61:9
54,62:4
54,63:2
54,64:2
54,65:9
54,66:9
54,67:9
54,68:10
54,69:5
55,1:4
55,2:4
55,3:4
55,4:4
55,5:4
55,6:6
55,7:4
55,8:3
55,10:3
55,11:3
55,12:3
55,13:9
55,14:5
55,16:6
55,17:3
55,18:7
55,19:7
55,20:7
55,21:5
55,22:9
55,23:2
55,25:6
55,26:10
55,27:10
55,28:10
55,29:5
55,30:6
55,31:2
55,32:6
55,33:2
55,34:10
55,35:5
55,36:1
55,37:1
55,38:1
55,39:11
55,40:10
55,44:5
55,45:5
55,46:11
55,48:1
55,49:11
55,51:5
55,52:3
55,53:5
55,54:1
55,56:10
55,57:5
55,58:5
55,59:9
55,60:10
55,61:10
55,62:5
55,63:3
55,64:3
55,65:10
55,66:10
55,67:10
55,68:11
55,69:6
56,39:1
56,46:1
56,49:1
56,68:1
57,6:1
57,13:4
57,16:1
57,18:2
57,19:2
57,20:2
57,22:4
57,25:1
57,26:5
57,27:5
57,28:5
57,30:1
57,32:1
57,34:5
57,39:6
57,40:5
57,46:6
57,49:6
57,56:5
57,61:5
57,65:5
57,66:5
57,67:5
57,68:6
57,69:1
58,6:1
58,13:4
58,16:1
58,18:2
58,19:2
58,20:2
58,22:4
58,25:1
58,26:5
58,27:5
58,28:5
58,30:1
58,32:1
58,34:5
58,39:6
58,40:5
58,46:6
58,49:6
58,56:5
58,61:5
58,65:5
58,66:5
58,67:5
58,68:6
58,69:1
59,26:1
59,27:1
59,28:1
59,34:1
59,39:2
59,40:1
59,46:2
59,49:2
59,56:1
59,61:1
59,65:1
59,66:1
59,67:1
59,68:2
60,39:1
60,46:1
60,49:1
60,68:1
61,39:1
61,46:1
61,49:1
61,68:1
62,6:1
62,13:4
62,16:1
62,18:2
62,19:2
62,20:2
62,22:4
62,25:1
62,26:5
62,27:5
62,28:5
62,30:1
62,32:1
62,34:5
62,39:6
62,40:5
62,46:6
62,49:6
62,56:5
62,59:4
62,60:5
62,61:5
62,68:6
62,69:1
63,1:1
63,2:1
63,3:1
63,4:1
63,5:1
63,6:3
63,7:1
63,13:6
63,14:2
63,16:3
63,18:4
63,19:4
63,20:4
63,21:2
63,22:6
63,25:3
63,26:7
63,27:7
63,28:7
63,29:2
63,30:3
63,32:3
63,34:7
63,35:2
63,39:8
63,40:7
63,44:2
63,45:2
63,46:8
63,49:8
63,51:2
63,53:2
63,56:7
63,57:2
63,58:2
63,59:6
63,60:7
63,61:7
63,62:2
63,68:8
63,69:3
64,1:1
64,2:1
64,3:1
64,4:1
64,5:1
64,6:3
64,7:1
64,13:6
64,14:2
64,16:3
64,18:4
64,19:4
64,20:4
64,21:2
64,22:6
64,25:3
64,26:7
64,27:7
64,28:7
64,29:2
64,30:3
64,32:3
64,34:7
64,35:2
64,39:8
64,40:7
64,44:2
64,45:2
64,46:8
64,49:8
64,51:2
64,53:2
64,56:7
64,57:2
64,58:2
64,59:6
64,60:7
64,61:7
64,62:2
64,68:8
64,69:3
65,39:1
65,46:1
65,49:1
65,68:1
66,39:1
66,46:1
66,49:1
66,68:1
67,39:1
67,46:1
67,49:1
67,68:1
69,13:3
69,18:1
69,19:1
69,20:1
69,22:3
69,26:4
69,27:4
69,28:4
69,34:4
69,39:5
69,40:4
69,46:5
69,49:5
69,56:4
69,59:3
69,60:4
69,61:4
69,65:4
69,66:4
69,67:4
69,68:5
70,1:4
70,2:4
70,3:4
70,4:4
70,5:4
70,6:6
70,7:4
70,8:3
70,10:3
70,11:3
70,12:3
70,13:9
70,14:5
70,16:6
70,17:3
70,18:7
70,19:7
70,20:7
70,21:5
70,22:9
70,23:2
70,25:6
70,26:10
70,27:10
70,28:10
70,29:5
70,30:6
70,31:2
70,32:6
70,33:2
70,34:10
70,35:5
70,36:1
70,37:1
70,38:1
70,39:11
70,40:10
70,44:5
70,45:5
70,46:11
70,48:1
70,49:11
70,51:5
70,52:3
70,53:5
70,54:1
70,56:10
70,57:5
70,58:5
70,59:9
70,60:10
70,61:10
70,62:5
70,63:3
70,64:3
70,65:10
70,66:10
70,67:10
70,68:11
70,69:6

<end>

<optimal SALBP-1 value>
17


<rand seed>
467321153

<Lower Bounds>
Lm1=16
Lms1=16
Lm2=7
Lm3=9
Lm4=16
Best=16

<Optimal Stations (Iterations: 10)>
20
